20
73
5
79
34
28
57
61
0 1
0 3
0 7
0 8
0 9
0 10
0 14
0 17
0 19
1 2
1 4
1 6
1 7
1 9
1 11
1 17
2 11
2 12
2 13
2 17
3 5
3 8
3 10
3 12
3 14
4 5
4 7
4 12
4 18
5 6
5 7
5 9
5 13
5 14
5 15
6 7
6 8
6 9
6 10
6 11
6 14
6 17
6 18
7 11
7 16
7 19
8 9
8 13
8 14
8 17
8 18
9 11
9 12
9 13
9 16
9 17
9 18
10 12
10 13
10 14
10 17
10 19
11 12
11 19
12 17
13 15
13 18
14 15
14 17
14 18
14 19
16 17
17 18
6 7 13 18
8 5 11 16
19 1 17 9
12 10 4 3
0 15 14 2
